p cnf 70 35
-39 -58 64 0
27 34 -18 0
20 -70 -63 0
-65 54 53 0
14 -23 55 0
-50 -46 -48 0
55 -30 31 0
15 29 57 0
67 62 -25 0
-49 29 65 0
-25 -57 58 0
14 -38 -47 0
-15 17 12 0
-5 66 51 0
28 -48 66 0
-47 16 -40 0
61 -32 24 0
-44 -63 32 0
68 34 -2 0
63 -18 -66 0
-52 -1 -68 0
-60 -68 -24 0
45 -48 42 0
7 -54 -45 0
68 32 1 0
-6 -14 36 0
-14 48 -55 0
-21 45 -8 0
44 55 -16 0
-67 -12 -16 0
-12 -52 24 0
-9 -25 21 0
66 27 34 0
66 -47 61 0
-31 56 -5 0
